800 1600
1 769 -5
1 33 -5
1 32 6
1 2 -4
2 770 -3
2 34 -7
2 3 -6
3 771 6
3 35 3
3 4 3
4 772 4
4 36 -2
4 5 2
5 773 4
5 37 1
5 6 1
6 774 -4
6 38 -1
6 7 -3
7 775 -1
7 39 -5
7 8 -2
8 776 -1
8 40 -6
8 9 -6
9 777 3
9 41 4
9 10 6
10 778 -4
10 42 -7
10 11 -7
11 779 -3
11 43 -1
11 12 -5
12 780 -4
12 44 3
12 13 -5
13 781 4
13 45 4
13 14 7
14 782 2
14 46 5
14 15 -1
15 783 -7
15 47 -5
15 16 -6
16 784 6
16 48 6
16 17 6
17 785 7
17 49 2
17 18 4
18 786 1
18 50 -7
18 19 -2
19 787 2
19 51 -1
19 20 -1
20 788 -2
20 52 5
20 21 -6
21 789 -2
21 53 2
21 22 4
22 790 -2
22 54 -7
22 23 -6
23 791 -7
23 55 -7
23 24 1
24 792 -1
24 56 6
24 25 4
25 793 -5
25 57 5
25 26 5
26 794 -7
26 58 -7
26 27 6
27 795 -3
27 59 2
27 28 -1
28 796 2
28 60 4
28 29 3
29 797 -7
29 61 6
29 30 -7
30 798 -7
30 62 -4
30 31 7
31 799 4
31 63 -4
31 32 3
32 800 5
32 64 -5
33 65 -2
33 64 7
33 34 -2
34 66 6
34 35 5
35 67 -5
35 36 -3
36 68 1
36 37 5
37 69 -5
37 38 1
38 70 2
38 39 -1
39 71 -4
39 40 2
40 72 5
40 41 -6
41 73 -4
41 42 -4
42 74 1
42 43 -7
43 75 -1
43 44 -3
44 76 -2
44 45 -4
45 77 -6
45 46 7
46 78 -3
46 47 7
47 79 -7
47 48 -6
48 80 1
48 49 -2
49 81 -2
49 50 4
50 82 3
50 51 -2
51 83 -6
51 52 1
52 84 4
52 53 1
53 85 1
53 54 -3
54 86 2
54 55 5
55 87 -6
55 56 -6
56 88 -7
56 57 5
57 89 -4
57 58 2
58 90 -3
58 59 -1
59 91 -3
59 60 -2
60 92 3
60 61 1
61 93 -3
61 62 2
62 94 -4
62 63 2
63 95 3
63 64 -7
64 96 -3
65 97 -7
65 96 -7
65 66 -3
66 98 1
66 67 1
67 99 5
67 68 -6
68 100 -5
68 69 -1
69 101 -1
69 70 -4
70 102 -2
70 71 6
71 103 -4
71 72 -7
72 104 2
72 73 2
73 105 6
73 74 3
74 106 -5
74 75 5
75 107 -1
75 76 -6
76 108 2
76 77 -7
77 109 4
77 78 4
78 110 5
78 79 -2
79 111 -7
79 80 -4
80 112 -2
80 81 -7
81 113 3
81 82 2
82 114 -2
82 83 7
83 115 -6
83 84 6
84 116 5
84 85 -3
85 117 7
85 86 -7
86 118 -3
86 87 -4
87 119 4
87 88 -4
88 120 -5
88 89 -7
89 121 5
89 90 -7
90 122 -1
90 91 3
91 123 5
91 92 2
92 124 5
92 93 3
93 125 5
93 94 -7
94 126 -3
94 95 1
95 127 -6
95 96 -6
96 128 -2
97 129 -5
97 128 5
97 98 -2
98 130 6
98 99 3
99 131 -2
99 100 2
100 132 -6
100 101 -1
101 133 1
101 102 2
102 134 7
102 103 -7
103 135 -2
103 104 -7
104 136 -1
104 105 5
105 137 -5
105 106 2
106 138 1
106 107 2
107 139 1
107 108 -7
108 140 5
108 109 7
109 141 -3
109 110 7
110 142 -1
110 111 1
111 143 3
111 112 -5
112 144 -6
112 113 3
113 145 -7
113 114 4
114 146 3
114 115 -7
115 147 -5
115 116 5
116 148 6
116 117 -5
117 149 -2
117 118 -7
118 150 -3
118 119 -2
119 151 -4
119 120 2
120 152 1
120 121 -6
121 153 4
121 122 4
122 154 7
122 123 -1
123 155 3
123 124 4
124 156 -1
124 125 -1
125 157 -6
125 126 1
126 158 1
126 127 -5
127 159 2
127 128 -5
128 160 6
129 161 -4
129 160 -3
129 130 -6
130 162 6
130 131 -2
131 163 1
131 132 -2
132 164 2
132 133 1
133 165 7
133 134 6
134 166 -3
134 135 -6
135 167 3
135 136 -6
136 168 4
136 137 -4
137 169 -7
137 138 4
138 170 2
138 139 -2
139 171 -1
139 140 3
140 172 6
140 141 -1
141 173 7
141 142 1
142 174 -7
142 143 -6
143 175 5
143 144 -7
144 176 4
144 145 5
145 177 -7
145 146 -4
146 178 2
146 147 -1
147 179 -7
147 148 5
148 180 -3
148 149 3
149 181 3
149 150 2
150 182 1
150 151 -6
151 183 3
151 152 7
152 184 -4
152 153 1
153 185 3
153 154 -4
154 186 -1
154 155 6
155 187 -5
155 156 -7
156 188 -5
156 157 6
157 189 4
157 158 -6
158 190 6
158 159 7
159 191 7
159 160 7
160 192 -5
161 193 -4
161 192 -2
161 162 -5
162 194 4
162 163 4
163 195 -6
163 164 -1
164 196 -2
164 165 6
165 197 -1
165 166 6
166 198 -2
166 167 4
167 199 1
167 168 -5
168 200 -7
168 169 -4
169 201 -1
169 170 6
170 202 -1
170 171 5
171 203 6
171 172 -2
172 204 -6
172 173 3
173 205 -5
173 174 2
174 206 4
174 175 -4
175 207 3
175 176 -3
176 208 2
176 177 3
177 209 -7
177 178 1
178 210 -2
178 179 7
179 211 -4
179 180 2
180 212 -3
180 181 -7
181 213 -1
181 182 -6
182 214 -6
182 183 5
183 215 6
183 184 -3
184 216 6
184 185 4
185 217 7
185 186 -3
186 218 5
186 187 3
187 219 -6
187 188 1
188 220 1
188 189 6
189 221 -7
189 190 5
190 222 -5
190 191 -7
191 223 7
191 192 -6
192 224 -6
193 225 -7
193 224 4
193 194 -3
194 226 5
194 195 -2
195 227 -7
195 196 7
196 228 -6
196 197 6
197 229 3
197 198 6
198 230 -2
198 199 3
199 231 4
199 200 3
200 232 4
200 201 -5
201 233 -4
201 202 2
202 234 7
202 203 -1
203 235 6
203 204 -1
204 236 5
204 205 4
205 237 1
205 206 6
206 238 -6
206 207 -1
207 239 7
207 208 2
208 240 1
208 209 -7
209 241 4
209 210 -5
210 242 3
210 211 -6
211 243 1
211 212 1
212 244 5
212 213 -7
213 245 -4
213 214 -3
214 246 -5
214 215 -5
215 247 -6
215 216 -1
216 248 3
216 217 -6
217 249 2
217 218 -3
218 250 5
218 219 6
219 251 -1
219 220 3
220 252 -4
220 221 -5
221 253 1
221 222 -1
222 254 7
222 223 1
223 255 7
223 224 1
224 256 -7
225 257 -1
225 256 7
225 226 -2
226 258 -6
226 227 -1
227 259 -4
227 228 -3
228 260 -1
228 229 -6
229 261 3
229 230 -4
230 262 -2
230 231 -7
231 263 1
231 232 -2
232 264 -2
232 233 -7
233 265 -2
233 234 5
234 266 2
234 235 1
235 267 4
235 236 -7
236 268 -2
236 237 -5
237 269 -1
237 238 -3
238 270 6
238 239 -1
239 271 1
239 240 -1
240 272 2
240 241 3
241 273 -2
241 242 4
242 274 -7
242 243 2
243 275 4
243 244 -5
244 276 -4
244 245 -7
245 277 -1
245 246 4
246 278 1
246 247 -5
247 279 6
247 248 -4
248 280 -2
248 249 -1
249 281 -3
249 250 2
250 282 -4
250 251 -2
251 283 4
251 252 2
252 284 -3
252 253 -1
253 285 -7
253 254 -5
254 286 -1
254 255 7
255 287 -7
255 256 2
256 288 -6
257 289 -6
257 288 -1
257 258 1
258 290 7
258 259 5
259 291 -7
259 260 4
260 292 -1
260 261 -5
261 293 1
261 262 4
262 294 -2
262 263 1
263 295 7
263 264 -5
264 296 6
264 265 -4
265 297 -3
265 266 6
266 298 -2
266 267 7
267 299 -1
267 268 -3
268 300 2
268 269 6
269 301 -1
269 270 6
270 302 5
270 271 4
271 303 -2
271 272 5
272 304 2
272 273 4
273 305 -7
273 274 5
274 306 7
274 275 5
275 307 4
275 276 6
276 308 -2
276 277 -5
277 309 -6
277 278 5
278 310 6
278 279 3
279 311 2
279 280 -2
280 312 4
280 281 -1
281 313 -1
281 282 -2
282 314 7
282 283 -4
283 315 -3
283 284 1
284 316 4
284 285 6
285 317 -3
285 286 -7
286 318 1
286 287 3
287 319 -6
287 288 4
288 320 -7
289 321 -2
289 320 1
289 290 7
290 322 -2
290 291 4
291 323 2
291 292 -7
292 324 -1
292 293 3
293 325 1
293 294 6
294 326 3
294 295 6
295 327 -4
295 296 6
296 328 7
296 297 -6
297 329 -6
297 298 -5
298 330 -6
298 299 3
299 331 1
299 300 -4
300 332 7
300 301 2
301 333 2
301 302 -4
302 334 -1
302 303 1
303 335 6
303 304 2
304 336 -4
304 305 -2
305 337 -3
305 306 6
306 338 -3
306 307 -7
307 339 7
307 308 -5
308 340 -7
308 309 4
309 341 -6
309 310 5
310 342 -5
310 311 1
311 343 -3
311 312 -5
312 344 -3
312 313 -2
313 345 -7
313 314 2
314 346 6
314 315 6
315 347 2
315 316 -2
316 348 -3
316 317 -6
317 349 -6
317 318 2
318 350 4
318 319 4
319 351 2
319 320 -6
320 352 7
321 353 5
321 352 1
321 322 1
322 354 -1
322 323 3
323 355 1
323 324 7
324 356 -2
324 325 -1
325 357 7
325 326 -7
326 358 -4
326 327 -1
327 359 2
327 328 4
328 360 -1
328 329 7
329 361 6
329 330 -6
330 362 -3
330 331 -4
331 363 1
331 332 6
332 364 -7
332 333 -4
333 365 -1
333 334 -7
334 366 -6
334 335 -5
335 367 3
335 336 -5
336 368 6
336 337 5
337 369 -5
337 338 -7
338 370 -6
338 339 1
339 371 3
339 340 -2
340 372 -6
340 341 -2
341 373 6
341 342 -2
342 374 -6
342 343 2
343 375 -6
343 344 -7
344 376 -1
344 345 6
345 377 3
345 346 -5
346 378 1
346 347 7
347 379 -5
347 348 5
348 380 6
348 349 -4
349 381 6
349 350 -1
350 382 -1
350 351 6
351 383 4
351 352 -4
352 384 3
353 385 -3
353 384 5
353 354 -5
354 386 -3
354 355 5
355 387 3
355 356 -3
356 388 1
356 357 1
357 389 1
357 358 -4
358 390 5
358 359 3
359 391 -5
359 360 1
360 392 -1
360 361 -1
361 393 4
361 362 2
362 394 4
362 363 4
363 395 -4
363 364 6
364 396 -2
364 365 -6
365 397 -5
365 366 7
366 398 6
366 367 -4
367 399 5
367 368 5
368 400 -2
368 369 -7
369 401 2
369 370 1
370 402 -5
370 371 1
371 403 -4
371 372 6
372 404 -5
372 373 -3
373 405 -6
373 374 -3
374 406 -6
374 375 -6
375 407 -1
375 376 3
376 408 3
376 377 6
377 409 -1
377 378 -7
378 410 4
378 379 -4
379 411 -7
379 380 1
380 412 -1
380 381 1
381 413 -2
381 382 -2
382 414 4
382 383 4
383 415 3
383 384 -3
384 416 -7
385 417 -3
385 416 4
385 386 -2
386 418 7
386 387 2
387 419 4
387 388 6
388 420 -7
388 389 -5
389 421 -1
389 390 -1
390 422 -3
390 391 7
391 423 6
391 392 -7
392 424 6
392 393 -7
393 425 6
393 394 5
394 426 -5
394 395 -1
395 427 5
395 396 -2
396 428 -7
396 397 -2
397 429 -2
397 398 -7
398 430 5
398 399 6
399 431 -4
399 400 7
400 432 -7
400 401 -2
401 433 6
401 402 -7
402 434 -1
402 403 -1
403 435 7
403 404 -1
404 436 7
404 405 -5
405 437 6
405 406 -5
406 438 -5
406 407 6
407 439 -7
407 408 -1
408 440 4
408 409 -4
409 441 7
409 410 -4
410 442 4
410 411 -2
411 443 -1
411 412 4
412 444 -3
412 413 6
413 445 1
413 414 1
414 446 -3
414 415 -3
415 447 5
415 416 7
416 448 -3
417 449 -3
417 448 4
417 418 -2
418 450 3
418 419 -2
419 451 -3
419 420 -6
420 452 1
420 421 -4
421 453 -5
421 422 -1
422 454 -7
422 423 -7
423 455 -6
423 424 5
424 456 4
424 425 -2
425 457 3
425 426 4
426 458 -3
426 427 3
427 459 -2
427 428 -6
428 460 -3
428 429 -1
429 461 -6
429 430 -1
430 462 1
430 431 4
431 463 -4
431 432 7
432 464 -5
432 433 1
433 465 -1
433 434 5
434 466 -2
434 435 5
435 467 4
435 436 7
436 468 -7
436 437 -4
437 469 4
437 438 -3
438 470 1
438 439 -4
439 471 -6
439 440 -6
440 472 -1
440 441 4
441 473 6
441 442 4
442 474 6
442 443 -6
443 475 7
443 444 -6
444 476 -4
444 445 -5
445 477 -2
445 446 -2
446 478 1
446 447 -7
447 479 1
447 448 6
448 480 -4
449 481 5
449 480 -3
449 450 3
450 482 -7
450 451 3
451 483 -3
451 452 -5
452 484 -5
452 453 -6
453 485 1
453 454 -2
454 486 6
454 455 3
455 487 -3
455 456 3
456 488 4
456 457 -1
457 489 5
457 458 3
458 490 5
458 459 2
459 491 -4
459 460 -5
460 492 4
460 461 -7
461 493 2
461 462 3
462 494 -7
462 463 -1
463 495 1
463 464 -5
464 496 -2
464 465 -5
465 497 -6
465 466 7
466 498 -4
466 467 -2
467 499 -1
467 468 4
468 500 -1
468 469 -4
469 501 6
469 470 6
470 502 7
470 471 -2
471 503 -2
471 472 6
472 504 -3
472 473 -5
473 505 -5
473 474 5
474 506 -6
474 475 7
475 507 -6
475 476 -4
476 508 -1
476 477 -5
477 509 -2
477 478 -1
478 510 -6
478 479 5
479 511 7
479 480 1
480 512 -4
481 513 6
481 512 7
481 482 -7
482 514 -3
482 483 -4
483 515 -7
483 484 -7
484 516 -4
484 485 -7
485 517 5
485 486 -3
486 518 -3
486 487 -6
487 519 -7
487 488 6
488 520 -7
488 489 -3
489 521 6
489 490 -2
490 522 -6
490 491 4
491 523 -5
491 492 7
492 524 -6
492 493 1
493 525 4
493 494 -2
494 526 -2
494 495 5
495 527 -1
495 496 -6
496 528 -2
496 497 3
497 529 -5
497 498 -4
498 530 6
498 499 5
499 531 7
499 500 -2
500 532 2
500 501 2
501 533 2
501 502 7
502 534 -4
502 503 -2
503 535 6
503 504 1
504 536 2
504 505 3
505 537 6
505 506 -7
506 538 3
506 507 4
507 539 -3
507 508 7
508 540 4
508 509 -2
509 541 -2
509 510 1
510 542 5
510 511 -3
511 543 -4
511 512 -1
512 544 -5
513 545 2
513 544 -5
513 514 -6
514 546 6
514 515 3
515 547 -5
515 516 -4
516 548 -7
516 517 3
517 549 -3
517 518 -3
518 550 6
518 519 6
519 551 5
519 520 7
520 552 4
520 521 -7
521 553 -1
521 522 5
522 554 -3
522 523 -2
523 555 -5
523 524 -5
524 556 -6
524 525 7
525 557 -1
525 526 -1
526 558 1
526 527 6
527 559 -3
527 528 -4
528 560 4
528 529 -7
529 561 -5
529 530 1
530 562 -3
530 531 -7
531 563 -5
531 532 4
532 564 -1
532 533 6
533 565 -3
533 534 1
534 566 1
534 535 2
535 567 4
535 536 3
536 568 -7
536 537 -4
537 569 -5
537 538 -2
538 570 3
538 539 4
539 571 -5
539 540 -4
540 572 -4
540 541 3
541 573 6
541 542 7
542 574 -6
542 543 7
543 575 7
543 544 4
544 576 3
545 577 -4
545 576 4
545 546 6
546 578 6
546 547 6
547 579 4
547 548 -1
548 580 -6
548 549 -5
549 581 5
549 550 -2
550 582 -6
550 551 -7
551 583 -1
551 552 2
552 584 3
552 553 2
553 585 2
553 554 3
554 586 5
554 555 -7
555 587 -1
555 556 -7
556 588 -5
556 557 3
557 589 -7
557 558 -4
558 590 -2
558 559 4
559 591 6
559 560 2
560 592 4
560 561 2
561 593 -6
561 562 3
562 594 -6
562 563 -7
563 595 -5
563 564 6
564 596 -4
564 565 -7
565 597 -6
565 566 3
566 598 -2
566 567 -3
567 599 -2
567 568 7
568 600 3
568 569 -1
569 601 -6
569 570 4
570 602 -3
570 571 -2
571 603 -2
571 572 -1
572 604 7
572 573 -1
573 605 -1
573 574 -4
574 606 2
574 575 3
575 607 -7
575 576 -2
576 608 5
577 609 -1
577 608 1
577 578 -4
578 610 -7
578 579 -3
579 611 1
579 580 -6
580 612 -4
580 581 -6
581 613 -5
581 582 -3
582 614 -3
582 583 -2
583 615 6
583 584 -4
584 616 4
584 585 6
585 617 -6
585 586 4
586 618 -2
586 587 5
587 619 -7
587 588 -4
588 620 2
588 589 -2
589 621 4
589 590 -1
590 622 -4
590 591 -1
591 623 -3
591 592 3
592 624 7
592 593 1
593 625 -3
593 594 -2
594 626 1
594 595 -7
595 627 -7
595 596 5
596 628 -7
596 597 4
597 629 -5
597 598 7
598 630 7
598 599 -2
599 631 -1
599 600 -3
600 632 -2
600 601 -3
601 633 2
601 602 -2
602 634 -4
602 603 -4
603 635 4
603 604 5
604 636 -3
604 605 5
605 637 3
605 606 5
606 638 5
606 607 2
607 639 -7
607 608 -2
608 640 -6
609 641 -2
609 640 -6
609 610 5
610 642 4
610 611 -1
611 643 -7
611 612 -4
612 644 -7
612 613 -7
613 645 -7
613 614 -7
614 646 3
614 615 -2
615 647 3
615 616 5
616 648 4
616 617 7
617 649 -3
617 618 2
618 650 -7
618 619 3
619 651 1
619 620 -3
620 652 7
620 621 4
621 653 -5
621 622 6
622 654 -7
622 623 -2
623 655 -3
623 624 -3
624 656 2
624 625 3
625 657 -5
625 626 -5
626 658 -4
626 627 -5
627 659 5
627 628 3
628 660 3
628 629 -2
629 661 4
629 630 4
630 662 3
630 631 3
631 663 5
631 632 6
632 664 -5
632 633 -6
633 665 -1
633 634 -5
634 666 1
634 635 -5
635 667 4
635 636 7
636 668 3
636 637 -2
637 669 1
637 638 -1
638 670 3
638 639 -2
639 671 -2
639 640 3
640 672 4
641 673 7
641 672 5
641 642 -5
642 674 7
642 643 4
643 675 -5
643 644 5
644 676 -2
644 645 5
645 677 -7
645 646 2
646 678 4
646 647 5
647 679 -6
647 648 7
648 680 -6
648 649 5
649 681 2
649 650 -1
650 682 6
650 651 6
651 683 -7
651 652 -3
652 684 -4
652 653 1
653 685 3
653 654 1
654 686 5
654 655 -7
655 687 -3
655 656 3
656 688 -3
656 657 -3
657 689 5
657 658 3
658 690 -3
658 659 5
659 691 -3
659 660 7
660 692 -3
660 661 5
661 693 -5
661 662 3
662 694 -5
662 663 6
663 695 -1
663 664 -3
664 696 -3
664 665 1
665 697 1
665 666 -2
666 698 5
666 667 4
667 699 -5
667 668 -1
668 700 2
668 669 5
669 701 -3
669 670 -2
670 702 3
670 671 -6
671 703 6
671 672 -4
672 704 7
673 705 -1
673 704 -5
673 674 -5
674 706 -2
674 675 -6
675 707 4
675 676 5
676 708 -3
676 677 -1
677 709 5
677 678 1
678 710 -1
678 679 -2
679 711 -5
679 680 -7
680 712 -6
680 681 2
681 713 -4
681 682 1
682 714 5
682 683 -6
683 715 4
683 684 1
684 716 -2
684 685 -6
685 717 6
685 686 -3
686 718 7
686 687 -1
687 719 -3
687 688 3
688 720 -6
688 689 -5
689 721 -6
689 690 4
690 722 -6
690 691 -7
691 723 -5
691 692 6
692 724 7
692 693 -1
693 725 2
693 694 2
694 726 7
694 695 -1
695 727 6
695 696 -6
696 728 1
696 697 -1
697 729 -1
697 698 4
698 730 3
698 699 6
699 731 -5
699 700 -7
700 732 7
700 701 1
701 733 1
701 702 -6
702 734 -5
702 703 -1
703 735 -5
703 704 -1
704 736 -5
705 737 5
705 736 -5
705 706 3
706 738 3
706 707 -5
707 739 4
707 708 -4
708 740 -4
708 709 -7
709 741 3
709 710 -5
710 742 2
710 711 5
711 743 -3
711 712 -5
712 744 -2
712 713 -1
713 745 -6
713 714 -2
714 746 -2
714 715 -3
715 747 5
715 716 -3
716 748 4
716 717 -2
717 749 3
717 718 -6
718 750 -4
718 719 7
719 751 4
719 720 2
720 752 -7
720 721 2
721 753 -1
721 722 2
722 754 5
722 723 5
723 755 4
723 724 -5
724 756 -4
724 725 1
725 757 -2
725 726 2
726 758 3
726 727 -5
727 759 -4
727 728 7
728 760 -5
728 729 -3
729 761 4
729 730 6
730 762 -5
730 731 3
731 763 -3
731 732 -3
732 764 -6
732 733 3
733 765 4
733 734 -3
734 766 1
734 735 3
735 767 6
735 736 3
736 768 -1
737 769 -3
737 768 1
737 738 3
738 770 7
738 739 3
739 771 -5
739 740 -1
740 772 -3
740 741 4
741 773 -7
741 742 -1
742 774 -5
742 743 -3
743 775 -7
743 744 2
744 776 -3
744 745 -2
745 777 7
745 746 7
746 778 -5
746 747 -1
747 779 2
747 748 1
748 780 3
748 749 1
749 781 7
749 750 7
750 782 7
750 751 1
751 783 -7
751 752 4
752 784 -7
752 753 2
753 785 -4
753 754 -5
754 786 -6
754 755 -7
755 787 3
755 756 -3
756 788 -6
756 757 -6
757 789 -3
757 758 -5
758 790 6
758 759 -5
759 791 -3
759 760 4
760 792 -3
760 761 -5
761 793 -3
761 762 -4
762 794 2
762 763 -4
763 795 2
763 764 -3
764 796 -3
764 765 -1
765 797 3
765 766 3
766 798 -2
766 767 -2
767 799 -4
767 768 7
768 800 2
769 800 4
769 770 5
770 771 7
771 772 5
772 773 3
773 774 -7
774 775 1
775 776 2
776 777 4
777 778 -5
778 779 1
779 780 3
780 781 6
781 782 2
782 783 -4
783 784 2
784 785 5
785 786 -5
786 787 -1
787 788 -6
788 789 -6
789 790 -1
790 791 -1
791 792 -4
792 793 1
793 794 1
794 795 6
795 796 2
796 797 -5
797 798 4
798 799 -7
799 800 -7
